COLUMNS

passenger_count
pickup_ID
dropoff_ID
request_time_sec
pickup_district
dropoff_district
LDuals
IDuals
vehicle_ID
pick_position
drop_position

REQUESTS_INFO
2      827       694       30417     291       189       145       145       36        1         2         
3      458       652       30421     52        189       141       141       37        1         2         
3      860       1032      30402     290       84        247       247       58        1         3         
1      905       1032      30344     290       84        273       273       58        2         4         
1      746       575       30436     290       189       163       163       60        1         3         
2      498       858       30427     52        290       147       147       63        1         2         
3      285       350       30367     299       127       200       200       84        1         2         
3      352       859       30433     119       290       163       163       99        1         2         
3      981       1032      30429     291       84        219       219       103       1         3         
1      926       507       30156     290       189       492       492       117       1         4         
1      926       532       30392     290       199       234       234       117       2         3         
3      233       199       30376     206       178       191       191       143       1         2         
2      344       743       30426     299       290       197       197       145       1         3         
2      213       348       30405     266       299       201       201       154       1         2         
1      288       116       30436     127       9         145       145       169       1         2         
1      923       1227      30431     290       192       167       167       212       1         3         
2      1199      1094      30429     84        84        129       129       226       1         2         
1      1402      1529      30423     129       296       165       165       233       1         3         
1      276       605       30425     87        189       172       172       235       1         4         
3      218       374       30349     87        119       276       276       255       1         2         
2      352       859       30433     119       290       163       163       260       1         2         
1      864       488       30397     290       199       243       243       264       1         3         
1      772       738       30430     290       189       144.5     144.5     307       1         5         
3      969       794       30436     290       290       187       187       334       1         2         
2      416       521       30446     100       52        113       113       341       1         3         
2      948       537       30398     290       189       256       256       343       1         3         
1      336       416       30377     277       100       165       165       375       1         3         
2      749       698       30439     290       189       122       122       383       1         3         
1      1023      728       30391     291       290       219       219       409       1         3         
2      961       834       30300     291       290       369       369       418       1         2         
2      875       696       30439     291       189       179       179       443       1         3         
2      354       604       30432     119       189       143       143       449       1         3         
1      1047      699       30420     291       290       238       238       452       1         3         
1      812       671       30416     290       280       173       173       464       1         2         
1      1090      916       30438     291       291       255       255       478       1         2         
2      865       84        30408     290       287       246       246       525       1         2         
3      916       651       30407     291       189       225       225       540       1         2         
1      1043      626       30412     291       189       255       255       574       1         2         
1      574       356       30449     189       119       120       120       584       1         3         
2      1208      983       30405     192       291       187       187       594       1         3         
2      233       199       30376     206       178       191       191       615       1         2         
3      344       743       30426     299       290       197       197       662       1         2         
1      1106      532       30449     291       199       175       175       664       1         4         
1      950       459       30449     290       189       177       177       665       1         4         
1      904       606       30426     290       189       170       170       714       1         3         
1      970       790       30406     290       290       206       206       718       1         4         
2      835       789       30435     290       290       148       148       730       1         2         
2      916       651       30407     291       189       176       176       741       1         2         
1      858       652       30434     290       189       162       162       742       1         2         
1      417       232       30443     100       266       123       123       777       1         4         
1      1002      737       30432     291       189       194       194       806       1         3         
2      881       969       30396     290       290       256       256       807       1         2         
1      840       397       30397     290       168       224       224       808       1         3         
1      772       398       30419     290       168       155.5     155.5     829       1         3         
3      324       20        30362     299       98        227       227       858       1         3         
1      373       579       30429     119       189       129       129       910       1         2         
3      197       334       30393     178       119       235       235       929       1         2         
4      925       679       30440     290       290       213       213       1102      1         2         
3      969       794       30436     290       290       187       187       1119      1         2         
1      927       700       30301     290       290       357       357       1133      1         2         
1      814       700       30431     290       290       143       143       1156      1         2         
1      1025      980       30309     291       291       399       399       1198      1         2         
2      1475      1340      30362     296       129       228       228       1199      1         2         
2      476       603       30421     52        189       174       174       1224      1         2         
1      906       817       30409     290       290       263       263       1226      1         2         
1      835       789       30390     290       290       195       195       1245      1         2         
2      923       533       30399     290       199       217       217       1248      1         2         
2      969       696       30449     290       189       170       170       1264      1         3         
1      889       1011      30278     290       84        397       397       1265      1         2         
1      1107      1208      30440     291       192       170       170       1282      1         2         
1      744       653       30440     290       189       109       109       1305      1         2         
3      948       537       30398     290       189       256       256       1307      1         3         
1      609       630       30443     189       189       82        82        1321      1         2         
1      334       269       30415     119       127       197       197       1325      1         2         
2      849       859       30442     291       290       223       223       1335      1         2         
4      373       721       30417     119       290       141       141       1347      1         2         
3      1026      599       30402     291       280       306       306       1353      1         3         
1      236       155       30425     87        286       198       198       1357      1         3         
2      842       1010      30346     290       290       322       322       1369      1         2         
3      842       484       30163     290       189       463       463       1384      1         3         
1      748       699       30434     290       290       110       110       1449      1         3         
1      884       874       30446     290       291       157       157       1455      1         3         
1      916       812       30448     291       290       158       158       1462      1         3         
1      882       578       30434     290       189       162       162       1480      1         3         
2      183       233       30394     178       206       237       237       1489      1         2         
1      599       412       30450     280       52        0         0         0         0         0         
1      295       623       30450     87        280       0         0         0         0         0         
2      813       415       30450     290       100       0         0         0         0         0         
3      43        134       30450     9         9         0         0         0         0         0         
1      248       393       30450     266       52        0         0         0         0         0         
3      43        134       30450     9         9         0         0         0         0         0         
1      645       759       30451     280       131       0         0         0         0         0         
1      464       398       30451     168       168       0         0         0         0         0         
1      455       480       30451     52        52        0         0         0         0         0         
2      1091      649       30451     291       189       0         0         0         0         0         
1      723       626       30451     290       189       0         0         0         0         0         
1      234       394       30451     87        100       0         0         0         0         0         
1      104       436       30451     287       100       0         0         0         0         0         
1      772       535       30451     290       189       0         0         0         0         0         
1      946       815       30451     290       290       0         0         0         0         0         
1      189       522       30451     286       52        0         0         0         0         0         
3      1308      1684      30452     129       142       0         0         0         0         0         
2      440       674       30452     168       189       0         0         0         0         0         
1      526       65        30452     52        98        0         0         0         0         0         
1      842       557       30452     290       189       0         0         0         0         0         
2      718       1225      30452     189       192       0         0         0         0         0         
1      194       533       30453     207       199       0         0         0         0         0         
1      228       189       30454     266       286       0         0         0         0         0         
1      397       556       30454     168       199       0         0         0         0         0         
1      629       743       30454     189       290       0         0         0         0         0         
4      439       393       30454     189       52        0         0         0         0         0         
1      479       624       30455     52        189       0         0         0         0         0         
1      331       432       30455     127       52        0         0         0         0         0         
2      840       604       30455     290       189       0         0         0         0         0         
1      1066      1032      30455     291       84        0         0         0         0         0         
1      701       780       30455     290       291       0         0         0         0         0         
1      485       479       30455     189       52        0         0         0         0         0         
1      487       480       30456     199       52        0         0         0         0         0         
1      629       748       30456     189       290       0         0         0         0         0         
1      847       580       30456     291       189       0         0         0         0         0         
1      371       650       30456     52        189       0         0         0         0         0         
1      461       694       30456     189       189       0         0         0         0         0         
1      269       350       30457     127       127       0         0         0         0         0         
2      466       698       30457     199       189       0         0         0         0         0         
1      582       555       30457     189       199       0         0         0         0         0         
1      875       212       30457     291       266       0         0         0         0         0         
2      908       885       30457     290       290       0         0         0         0         0         
3      908       885       30457     290       290       0         0         0         0         0         
1      133       133       30458     9         9         0         0         0         0         0         
1      716       756       30458     189       131       0         0         0         0         0         
1      793       554       30458     290       189       0         0         0         0         0         
1      1171      652       30458     192       189       0         0         0         0         0         
1      884       760       30458     290       291       0         0         0         0         0         
2      608       735       30458     189       131       0         0         0         0         0         
3      608       735       30458     189       131       0         0         0         0         0         
3      760       720       30459     291       290       0         0         0         0         0         
1      582       268       30459     189       299       0         0         0         0         0         
2      983       916       30459     291       291       0         0         0         0         0         
1      1089      991       30459     291       290       0         0         0         0         0         
2      1023      1151      30459     291       291       0         0         0         0         0         
3      760       720       30459     291       290       0         0         0         0         0         
1      1011      1088      30459     84        291       0         0         0         0         0         
1      527       267       30460     52        266       0         0         0         0         0         
1      501       369       30460     52        52        0         0         0         0         0         
1      287       604       30460     299       189       0         0         0         0         0         
1      688       805       30460     131       291       0         0         0         0         0         
4      791       578       30460     290       189       0         0         0         0         0         
1      279       397       30460     87        168       0         0         0         0         0         
2      287       394       30461     299       100       0         0         0         0         0         
3      287       394       30461     299       100       0         0         0         0         0         
1      326       325       30461     299       299       0         0         0         0         0         
1      618       189       30461     131       286       0         0         0         0         0         
3      1131      1025      30461     291       291       0         0         0         0         0         
1      766       653       30461     290       189       0         0         0         0         0         
1      410       665       30461     52        131       0         0         0         0         0         
1      505       594       30461     52        131       0         0         0         0         0         
1      768       651       30462     290       189       0         0         0         0         0         
2      1088      1010      30462     291       290       0         0         0         0         0         
1      549       544       30462     52        52        0         0         0         0         0         
1      711       195       30462     131       207       0         0         0         0         0         
2      61        767       30462     98        290       0         0         0         0         0         
1      373       600       30462     119       280       0         0         0         0         0         
2      155       325       30462     286       299       0         0         0         0         0         
1      805       924       30462     291       290       0         0         0         0         0         
1      793       790       30462     290       290       0         0         0         0         0         
1      527       720       30463     52        290       0         0         0         0         0         
4      578       531       30463     189       189       0         0         0         0         0         
1      768       652       30463     290       189       0         0         0         0         0         
2      257       377       30463     87        168       0         0         0         0         0         
1      232       32        30463     266       98        0         0         0         0         0         
1      436       603       30463     100       189       0         0         0         0         0         
3      350       621       30464     127       280       0         0         0         0         0         
1      527       210       30464     52        266       0         0         0         0         0         
1      962       716       30464     291       189       0         0         0         0         0         
1      608       507       30464     189       189       0         0         0         0         0         
1      794       602       30464     290       189       0         0         0         0         0         
1      631       507       30464     189       189       0         0         0         0         0         
1      482       521       30465     189       52        0         0         0         0         0         
1      478       576       30465     52        189       0         0         0         0         0         
1      1128      1218      30465     291       84        0         0         0         0         0         
1      771       905       30465     290       290       0         0         0         0         0         
1      189       287       30465     286       299       0         0         0         0         0         
1      771       535       30466     290       189       0         0         0         0         0         
1      723       837       30466     290       290       0         0         0         0         0         
2      748       651       30466     290       189       0         0         0         0         0         
1      839       695       30466     290       189       0         0         0         0         0         
1      654       421       30466     189       168       0         0         0         0         0         
1      768       768       30466     290       290       0         0         0         0         0         
1      1048      970       30466     291       290       0         0         0         0         0         
1      237       173       30466     87        286       0         0         0         0         0         
3      459       604       30466     189       189       0         0         0         0         0         
2      459       604       30466     189       189       0         0         0         0         0         
1      746       607       30467     290       189       0         0         0         0         0         
4      161       21        30467     178       98        0         0         0         0         0         
1      906       1128      30467     290       291       0         0         0         0         0         
1      311       651       30467     87        189       0         0         0         0         0         
1      608       716       30467     189       189       0         0         0         0         0         
2      217       616       30467     87        131       0         0         0         0         0         
1      737       557       30468     189       189       0         0         0         0         0         
1      744       536       30468     290       189       0         0         0         0         0         
1      770       628       30468     290       189       0         0         0         0         0         
1      655       698       30469     189       189       0         0         0         0         0         
1      311       462       30469     87        189       0         0         0         0         0         
2      759       1128      30470     131       291       0         0         0         0         0         
2      457       115       30470     52        9         0         0         0         0         0         
4      621       697       30470     280       189       0         0         0         0         0         
1      859       904       30470     290       290       0         0         0         0         0         
1      527       392       30470     52        52        0         0         0         0         0         
1      937       627       30470     291       189       0         0         0         0         0         
1      701       696       30470     290       189       0         0         0         0         0         
1      888       814       30470     290       290       0         0         0         0         0         
1      621       720       30470     280       290       0         0         0         0         0         
1      216       794       30470     178       290       0         0         0         0         0         
1      885       842       30471     290       290       0         0         0         0         0         
1      370       499       30472     52        52        0         0         0         0         0         
1      462       693       30472     189       280       0         0         0         0         0         
1      1243      1264      30472     192       192       0         0         0         0         0         
1      961       654       30472     291       189       0         0         0         0         0         
1      287       325       30472     299       299       0         0         0         0         0         
1      1115      1137      30472     84        84        0         0         0         0         0         
1      505       533       30472     52        199       0         0         0         0         0         
1      746       717       30472     290       189       0         0         0         0         0         
1      1099      1143      30473     84        84        0         0         0         0         0         
1      647       575       30473     280       189       0         0         0         0         0         
1      1000      805       30474     291       291       0         0         0         0         0         
1      1208      651       30474     192       189       0         0         0         0         0         
1      746       535       30474     290       189       0         0         0         0         0         
1      723       813       30474     290       290       0         0         0         0         0         
1      34        350       30475     98        127       0         0         0         0         0         
1      767       864       30475     290       290       0         0         0         0         0         
3      597       650       30475     131       189       0         0         0         0         0         
1      535       324       30475     189       299       0         0         0         0         0         
1      1011      924       30475     84        290       0         0         0         0         0         
1      597       35        30476     131       98        0         0         0         0         0         
1      212       81        30476     266       98        0         0         0         0         0         
1      303       189       30476     299       286       0         0         0         0         0         
3      811       946       30476     290       290       0         0         0         0         0         
1      737       485       30476     189       189       0         0         0         0         0         
1      768       559       30477     290       189       0         0         0         0         0         
1      345       673       30477     299       189       0         0         0         0         0         
2      595       640       30477     131       131       0         0         0         0         0         
1      416       650       30477     100       189       0         0         0         0         0         
1      858       531       30477     290       189       0         0         0         0         0         
1      250       134       30477     127       9         0         0         0         0         0         
1      557       417       30477     189       100       0         0         0         0         0         
1      700       748       30477     290       290       0         0         0         0         0         
1      805       699       30477     291       290       0         0         0         0         0         
1      376       459       30477     168       189       0         0         0         0         0         
3      1518      1420      30478     296       129       0         0         0         0         0         
3      1518      1420      30478     296       129       0         0         0         0         0         
1      865       771       30478     290       290       0         0         0         0         0         
1      604       722       30479     189       290       0         0         0         0         0         
3      191       698       30479     266       189       0         0         0         0         0         
1      618       696       30479     131       189       0         0         0         0         0         
